
(set-logic ALL) 

(declare-datatype MyList ((Nil) (Cons (head Real) (tail MyList)) )) 
(declare-fun l0 () MyList) 
(declare-fun l1 () MyList) 
(declare-fun l2 () MyList) 
(declare-fun l3 () MyList) 
(declare-fun i0 () Real) 
(declare-fun i1 () Real) 
(assert (= l2 l3) )
(assert (not (is-Cons Nil)) )
(assert (= l1 Nil) )
(assert (or (= l1 Nil) (= l2 l2) (= l0 l0) (= l0 l1)) )
(assert (not (is-Cons l2)) )
(assert (= l3 Nil) )
(assert (is-Cons l3) )
(assert (and (is-Cons Nil) (= l1 Nil) (is-Cons Nil) (is-Nil Nil)) )
(check-sat)
